\ This file was automatically generated by Zimpl
\ var x1 >= 0;
\ var x2 >= 0;
\ var x3 >= 0;
\ maximize Z:     3*x1 + 3*x2;
\ subto c1:     1*x1 + 0*x2 + 3*x3 <= 5;
\ subto c2:     0*x1 + 1*x2 + 0*x3 <= 5;
\ subto c3:     3*x1 + 0*x2 + 2*x3 >= 6;
\ subto c4:     1*x1 + 1*x2 + 0*x3 <= 10;
\Problem name: pp
Maximize
 Z:  +3 x1 +3 x2
Subject to
 c1_1:
  +3 x3 + x1 <= 5
 c2_1:
  + x2 <= 5
 c3_1:
  +2 x3 +3 x1 >= 6
 c4_1:
  + x2 + x1 <= 10
Bounds
 0 <= x1 <= +inf
 0 <= x2 <= +inf
 0 <= x3 <= +inf
End
